c Generated map
c Size: 8 * 8, weights in range: 1 to 10, walls: True, with ratio 0.05
c dim 4 of 8
c
p sp 64 102
c graph contains 64 nodes and 102 arcs
c
a 1 9 4
a 9 1 4
a 1 2 8
a 2 1 8
a 2 10 6
a 10 2 6
a 2 3 10
a 3 2 10
a 3 11 1
a 11 3 1
a 3 4 6
a 4 3 6
a 4 12 6
a 12 4 6
a 4 5 6
a 5 4 6
a 5 13 10
a 13 5 10
a 7 15 8
a 15 7 8
a 7 8 8
a 8 7 8
a 8 16 10
a 16 8 10
a 9 17 5
a 17 9 5
a 9 10 10
a 10 9 10
a 10 18 10
a 18 10 10
a 10 11 6
a 11 10 6
a 11 19 3
a 19 11 3
a 11 12 4
a 12 11 4
a 12 20 1
a 20 12 1
a 12 13 3
a 13 12 3
a 13 21 5
a 21 13 5
a 15 23 5
a 23 15 5
a 15 16 1
a 16 15 1
a 16 24 8
a 24 16 8
a 17 25 6
a 25 17 6
a 17 18 5
a 18 17 5
a 18 26 4
a 26 18 4
a 18 19 10
a 19 18 10
a 19 27 5
a 27 19 5
a 19 20 8
a 20 19 8
a 20 21 7
a 21 20 7
a 21 29 4
a 29 21 4
a 21 22 5
a 22 21 5
a 22 30 9
a 30 22 9
a 22 23 7
a 23 22 7
a 23 31 6
a 31 23 6
a 23 24 3
a 24 23 3
a 24 32 10
a 32 24 10
a 25 33 4
a 33 25 4
a 25 26 1
a 26 25 1
a 26 34 2
a 34 26 2
a 26 27 6
a 27 26 6
a 27 35 3
a 35 27 3
a 29 37 6
a 37 29 6
a 29 30 7
a 30 29 7
a 30 38 8
a 38 30 8
a 30 31 3
a 31 30 3
a 31 39 8
a 39 31 8
a 31 32 8
a 32 31 8
a 32 40 2
a 40 32 2
a 33 41 5
a 41 33 5
a 33 34 4
a 34 33 4
a 34 42 5
a 42 34 5
a 34 35 9
a 35 34 9
a 35 43 9
a 43 35 9
a 35 36 6
a 36 35 6
a 36 44 8
a 44 36 8
a 36 37 7
a 37 36 7
a 37 45 3
a 45 37 3
a 37 38 1
a 38 37 1
a 38 46 9
a 46 38 9
a 38 39 3
a 39 38 3
a 39 47 9
a 47 39 9
a 39 40 5
a 40 39 5
a 40 48 8
a 48 40 8
a 41 49 7
a 49 41 7
a 41 42 7
a 42 41 7
a 42 50 3
a 50 42 3
a 42 43 9
a 43 42 9
a 43 51 4
a 51 43 4
a 43 44 1
a 44 43 1
a 44 52 9
a 52 44 9
a 44 45 6
a 45 44 6
a 45 53 8
a 53 45 8
a 45 46 2
a 46 45 2
a 46 54 3
a 54 46 3
a 46 47 6
a 47 46 6
a 47 55 4
a 55 47 4
a 47 48 1
a 48 47 1
a 48 56 7
a 56 48 7
a 49 57 7
a 57 49 7
a 49 50 2
a 50 49 2
a 50 58 6
a 58 50 6
a 50 51 8
a 51 50 8
a 51 59 2
a 59 51 2
a 51 52 10
a 52 51 10
a 52 60 1
a 60 52 1
a 52 53 10
a 53 52 10
a 53 61 4
a 61 53 4
a 53 54 4
a 54 53 4
a 54 62 1
a 62 54 1
a 54 55 4
a 55 54 4
a 55 63 5
a 63 55 5
a 55 56 10
a 56 55 10
a 56 64 5
a 64 56 5
a 57 58 9
a 58 57 9
a 58 59 4
a 59 58 4
a 59 60 1
a 60 59 1
a 60 61 2
a 61 60 2
a 61 62 4
a 62 61 4
a 62 63 1
a 63 62 1
a 63 64 4
a 64 63 4
